p edge 28 60
e 1 5
e 1 6
e 1 9
e 1 11
e 1 12
e 1 16
e 1 21
e 1 28
e 2 3
e 2 4
e 2 10
e 2 12
e 2 22
e 2 23
e 2 26
e 3 8
e 3 9
e 3 14
e 3 25
e 3 26
e 3 27
e 4 6
e 4 11
e 4 15
e 4 18
e 4 23
e 5 7
e 5 11
e 5 12
e 6 14
e 6 25
e 7 15
e 7 19
e 7 26
e 7 27
e 8 13
e 8 15
e 8 20
e 8 21
e 8 22
e 8 24
e 9 16
e 10 11
e 11 15
e 11 18
e 12 13
e 12 14
e 12 22
e 13 18
e 13 21
e 14 21
e 14 25
e 15 18
e 16 17
e 16 19
e 18 19
e 20 22
e 20 23
e 22 28
e 26 27
